p cnf 27 108
1 2 0
1 3 0
1 4 0
1 5 0
2 1 0
2 3 0
2 6 0
2 7 0
3 1 0
3 2 0
3 8 0
3 9 0
10 11 0
10 12 0
10 13 0
10 14 0
11 10 0
11 12 0
11 15 0
11 16 0
12 10 0
12 11 0
12 17 0
12 18 0
19 20 0
19 21 0
19 22 0
19 23 0
20 19 0
20 21 0
20 24 0
20 25 0
21 19 0
21 20 0
21 26 0
21 27 0
4 1 0
4 6 0
4 8 0
4 5 0
6 2 0
6 4 0
6 8 0
6 7 0
8 3 0
8 4 0
8 6 0
8 9 0
13 10 0
13 15 0
13 17 0
13 14 0
15 11 0
15 13 0
15 17 0
15 16 0
17 12 0
17 13 0
17 15 0
17 18 0
22 19 0
22 24 0
22 26 0
22 23 0
24 20 0
24 22 0
24 26 0
24 25 0
26 21 0
26 22 0
26 24 0
26 27 0
5 1 0
5 4 0
5 7 0
5 9 0
7 2 0
7 6 0
7 5 0
7 9 0
9 3 0
9 8 0
9 5 0
9 7 0
14 10 0
14 13 0
14 16 0
14 18 0
16 11 0
16 15 0
16 14 0
16 18 0
18 12 0
18 17 0
18 14 0
18 16 0
23 19 0
23 22 0
23 25 0
23 27 0
25 20 0
25 24 0
25 23 0
25 27 0
27 21 0
27 26 0
27 23 0
27 25 0
